30
1 0 10
2 0 8
2 1 10
3 0 3
3 1 5
3 2 12
4 0 17
4 1 9
4 2 2
4 3 5
5 0 1
5 1 14
5 2 13
5 3 15
5 4 19
6 0 9
6 1 8
6 2 12
6 3 6
6 4 16
6 5 19
7 0 19
7 1 19
7 2 2
7 3 20
7 4 4
7 5 14
7 6 10
8 0 15
8 1 13
8 2 17
8 3 3
8 4 13
8 5 9
8 6 16
8 7 10
9 0 16
9 1 11
9 2 16
9 3 9
9 4 3
9 5 8
9 6 4
9 7 15
9 8 14
10 0 1
10 1 12
10 2 7
10 3 4
10 4 1
10 5 18
10 6 19
10 7 16
10 8 12
10 9 5
11 0 7
11 1 7
11 2 9
11 3 15
11 4 5
11 5 12
11 6 13
11 7 2
11 8 6
11 9 3
11 10 17
12 0 4
12 1 6
12 2 14
12 3 1
12 4 11
12 5 16
12 6 14
12 7 13
12 8 9
12 9 17
12 10 17
12 11 18
13 0 13
13 1 17
13 2 14
13 3 16
13 4 15
13 5 17
13 6 12
13 7 1
13 8 5
13 9 18
13 10 9
13 11 4
13 12 17
14 0 11
14 1 6
14 2 7
14 3 19
14 4 9
14 5 6
14 6 4
14 7 19
14 8 10
14 9 9
14 10 15
14 11 6
14 12 12
14 13 16
15 0 20
15 1 20
15 2 17
15 3 9
15 4 17
15 5 15
15 6 1
15 7 9
15 8 19
15 9 16
15 10 14
15 11 17
15 12 9
15 13 17
15 14 17
16 0 2
16 1 2
16 2 16
16 3 5
16 4 18
16 5 9
16 6 2
16 7 13
16 8 2
16 9 20
16 10 3
16 11 12
16 12 7
16 13 18
16 14 13
16 15 5
17 0 2
17 1 8
17 2 13
17 3 20
17 4 2
17 5 4
17 6 14
17 7 10
17 8 2
17 9 3
17 10 11
17 11 10
17 12 11
17 13 13
17 14 7
17 15 11
17 16 17
18 0 10
18 1 20
18 2 18
18 3 4
18 4 4
18 5 6
18 6 9
18 7 3
18 8 18
18 9 4
18 10 6
18 11 15
18 12 2
18 13 12
18 14 17
18 15 8
18 16 11
18 17 14
19 0 20
19 1 8
19 2 5
19 3 1
19 4 9
19 5 9
19 6 18
19 7 20
19 8 12
19 9 19
19 10 6
19 11 9
19 12 9
19 13 2
19 14 19
19 15 3
19 16 14
19 17 9
19 18 7
20 0 1
20 1 9
20 2 10
20 3 1
20 4 2
20 5 12
20 6 12
20 7 9
20 8 9
20 9 13
20 10 17
20 11 16
20 12 19
20 13 15
20 14 1
20 15 15
20 16 5
20 17 8
20 18 1
20 19 16
21 0 12
21 1 15
21 2 7
21 3 7
21 4 3
21 5 3
21 6 17
21 7 14
21 8 11
21 9 4
21 10 6
21 11 20
21 12 13
21 13 13
21 14 11
21 15 12
21 16 5
21 17 6
21 18 9
21 19 4
21 20 17
22 0 7
22 1 12
22 2 20
22 3 10
22 4 10
22 5 9
22 6 8
22 7 8
22 8 10
22 9 10
22 10 8
22 11 1
22 12 1
22 13 8
22 14 12
22 15 12
22 16 2
22 17 15
22 18 20
22 19 13
22 20 8
22 21 14
23 0 15
23 1 19
23 2 18
23 3 4
23 4 1
23 5 5
23 6 11
23 7 9
23 8 18
23 9 8
23 10 12
23 11 18
23 12 13
23 13 14
23 14 7
23 15 16
23 16 2
23 17 5
23 18 16
23 19 19
23 20 2
23 21 7
23 22 15
24 0 11
24 1 16
24 2 20
24 3 16
24 4 18
24 5 9
24 6 2
24 7 13
24 8 19
24 9 3
24 10 10
24 11 4
24 12 7
24 13 14
24 14 17
24 15 3
24 16 4
24 17 20
24 18 19
24 19 8
24 20 19
24 21 9
24 22 1
24 23 13
25 0 2
25 1 9
25 2 19
25 3 17
25 4 9
25 5 18
25 6 11
25 7 2
25 8 3
25 9 8
25 10 11
25 11 5
25 12 15
25 13 12
25 14 15
25 15 8
25 16 7
25 17 5
25 18 4
25 19 4
25 20 2
25 21 1
25 22 19
25 23 16
25 24 13
26 0 4
26 1 3
26 2 9
26 3 16
26 4 10
26 5 3
26 6 8
26 7 15
26 8 4
26 9 5
26 10 3
26 11 10
26 12 13
26 13 17
26 14 13
26 15 11
26 16 13
26 17 8
26 18 9
26 19 2
26 20 3
26 21 8
26 22 6
26 23 5
26 24 15
26 25 9
27 0 13
27 1 13
27 2 3
27 3 7
27 4 18
27 5 20
27 6 14
27 7 10
27 8 12
27 9 3
27 10 20
27 11 9
27 12 13
27 13 16
27 14 10
27 15 2
27 16 4
27 17 20
27 18 10
27 19 4
27 20 10
27 21 11
27 22 4
27 23 10
27 24 14
27 25 19
27 26 9
28 0 15
28 1 20
28 2 20
28 3 14
28 4 16
28 5 14
28 6 20
28 7 3
28 8 18
28 9 9
28 10 14
28 11 20
28 12 6
28 13 4
28 14 11
28 15 8
28 16 7
28 17 19
28 18 12
28 19 8
28 20 14
28 21 7
28 22 7
28 23 6
28 24 12
28 25 18
28 26 15
28 27 11
29 0 10
29 1 1
29 2 9
29 3 20
29 4 7
29 5 20
29 6 15
29 7 12
29 8 2
29 9 6
29 10 2
29 11 8
29 12 1
29 13 19
29 14 3
29 15 16
29 16 11
29 17 11
29 18 18
29 19 18
29 20 2
29 21 16
29 22 17
29 23 8
29 24 9
29 25 18
29 26 5
29 27 19
29 28 14
